gen	cost
1	20680
2	20358
3	20131
4	20061
5	19948
6	19796
7	19684
8	19647
9	19630
10	19605
11	19562
12	19551
13	19551
14	19544
15	19499
16	19495
17	19493
18	19493
19	19493
20	19467
21	19467
22	19467
23	19467
24	19467
25	19467
26	19463
27	19463
28	19463
29	19439
30	19436
31	19436
32	19436
33	19436
34	19436
35	19436
36	19435
37	19435
38	19435
39	19435
40	19435
41	19435
42	19435
43	19435
44	19435
45	19435
46	19435
47	19435
48	19435
49	19435
50	19435

